p edge 60 366
v 1 2
v 2 2
v 3 3
v 4 2
v 5 1
v 6 3
v 7 2
v 8 2
v 9 2
v 10 3
v 11 1
v 12 3
v 13 1
v 14 1
v 15 3
v 16 2
v 17 3
v 18 3
v 19 2
v 20 1
v 21 2
v 22 2
v 23 3
v 24 2
v 25 2
v 26 2
v 27 2
v 28 1
v 29 2
v 30 2
v 31 3
v 32 3
v 33 1
v 34 3
v 35 2
v 36 1
v 37 2
v 38 3
v 39 3
v 40 1
v 41 3
v 42 3
v 43 3
v 44 3
v 45 1
v 46 3
v 47 2
v 48 3
v 49 2
v 50 3
v 51 3
v 52 1
v 53 2
v 54 2
v 55 2
v 56 1
v 57 1
v 58 1
v 59 2
v 60 2
e 1 10
e 1 12
e 1 13
e 1 15
e 1 25
e 1 28
e 1 33
e 1 37
e 1 40
e 1 46
e 1 58
e 1 60
e 2 11
e 2 12
e 2 16
e 2 17
e 2 18
e 2 20
e 2 21
e 2 22
e 2 25
e 2 26
e 2 32
e 2 34
e 2 36
e 2 43
e 2 45
e 2 49
e 2 50
e 2 53
e 2 59
e 2 60
e 3 6
e 3 14
e 3 17
e 3 18
e 3 26
e 3 29
e 3 31
e 3 38
e 3 44
e 3 47
e 3 55
e 4 14
e 4 24
e 4 27
e 4 29
e 4 30
e 4 41
e 4 51
e 5 16
e 5 19
e 5 32
e 5 35
e 5 42
e 5 45
e 5 54
e 5 57
e 6 8
e 6 9
e 6 18
e 6 34
e 6 38
e 6 39
e 6 43
e 6 44
e 6 48
e 6 55
e 6 56
e 7 14
e 7 29
e 7 47
e 7 52
e 8 9
e 8 11
e 8 18
e 8 20
e 8 34
e 8 38
e 8 39
e 8 43
e 8 48
e 8 55
e 8 56
e 9 38
e 9 39
e 9 48
e 9 56
e 10 25
e 10 28
e 10 37
e 10 40
e 10 45
e 10 58
e 10 60
e 11 20
e 11 21
e 11 22
e 11 32
e 11 34
e 11 39
e 11 42
e 11 43
e 11 59
e 12 16
e 12 17
e 12 22
e 12 25
e 12 26
e 12 36
e 12 37
e 12 40
e 12 46
e 12 49
e 12 50
e 12 53
e 12 58
e 12 60
e 13 15
e 13 23
e 13 24
e 13 27
e 13 28
e 13 30
e 13 33
e 13 37
e 13 40
e 13 46
e 13 58
e 14 17
e 14 26
e 14 27
e 14 29
e 14 30
e 14 31
e 14 41
e 14 51
e 14 52
e 14 53
e 15 23
e 15 24
e 15 28
e 15 33
e 15 37
e 15 40
e 15 46
e 15 58
e 16 19
e 16 21
e 16 22
e 16 25
e 16 32
e 16 35
e 16 36
e 16 42
e 16 45
e 16 54
e 16 57
e 16 59
e 16 60
e 17 18
e 17 26
e 17 31
e 17 34
e 17 36
e 17 38
e 17 41
e 17 43
e 17 49
e 17 50
e 17 51
e 17 53
e 17 55
e 18 26
e 18 31
e 18 34
e 18 38
e 18 43
e 18 44
e 18 49
e 18 50
e 18 53
e 18 55
e 18 56
e 19 21
e 19 22
e 19 25
e 19 32
e 19 35
e 19 42
e 19 45
e 19 54
e 19 57
e 19 60
e 20 21
e 20 22
e 20 32
e 20 39
e 20 42
e 20 54
e 20 57
e 20 59
e 21 22
e 21 32
e 21 36
e 21 42
e 21 45
e 21 50
e 21 54
e 21 57
e 21 59
e 21 60
e 22 25
e 22 32
e 22 36
e 22 42
e 22 45
e 22 49
e 22 50
e 22 54
e 22 59
e 22 60
e 23 28
e 23 33
e 24 27
e 24 30
e 24 33
e 24 41
e 24 46
e 24 51
e 24 58
e 25 32
e 25 36
e 25 37
e 25 45
e 25 60
e 26 31
e 26 34
e 26 36
e 26 38
e 26 41
e 26 43
e 26 49
e 26 50
e 26 53
e 26 55
e 27 29
e 27 30
e 27 31
e 27 41
e 27 46
e 27 51
e 27 58
e 28 33
e 28 37
e 28 40
e 28 46
e 28 58
e 29 31
e 29 41
e 29 51
e 29 52
e 30 31
e 30 33
e 30 41
e 30 46
e 30 51
e 30 58
e 31 41
e 31 49
e 31 50
e 31 51
e 31 52
e 31 53
e 32 35
e 32 36
e 32 42
e 32 45
e 32 54
e 32 57
e 32 59
e 32 60
e 33 37
e 33 40
e 33 46
e 33 58
e 34 38
e 34 39
e 34 43
e 34 44
e 34 50
e 34 55
e 34 56
e 35 42
e 35 45
e 35 54
e 35 57
e 35 59
e 36 37
e 36 45
e 36 49
e 36 50
e 36 53
e 36 59
e 36 60
e 37 40
e 37 46
e 37 49
e 37 50
e 37 53
e 37 58
e 37 60
e 38 39
e 38 43
e 38 44
e 38 48
e 38 50
e 38 55
e 38 56
e 39 43
e 39 55
e 39 56
e 39 59
e 40 46
e 40 49
e 40 53
e 40 58
e 41 46
e 41 49
e 41 51
e 41 53
e 41 58
e 42 54
e 42 57
e 42 59
e 43 44
e 43 50
e 43 55
e 43 56
e 44 47
e 44 48
e 44 55
e 44 56
e 45 54
e 45 57
e 45 60
e 46 49
e 46 50
e 46 51
e 46 53
e 46 58
e 48 55
e 48 56
e 49 50
e 49 53
e 49 58
e 50 53
e 50 55
e 51 52
e 51 53
e 53 55
e 53 58
e 54 57
e 54 59
e 55 56
e 57 59
